NAME : ClusterId_1029 
COMMENT : (Gillet and Johnson) 
TYPE : CVRP 
DIMENSION : 26 
EDGE_WEIGHT_TYPE : EUC_2D 
CAPACITY : 500 
NODE_COORD_SECTION 
1029 7869 1403 
281 9335 3769 
334 9140 4283 
570 9298 3765 
17 8854 4618 
34 8979 3512 
248 8821 3590 
368 7877 1485 
140 7923 1746 
517 7407 1288 
610 8328 2794 
296 7877 1985 
134 8199 2741 
363 8227 2989 
714 7094 1201 
174 8076 2433 
301 8060 2399 
704 7813 2089 
331 6842 1113 
149 6955 1187 
835 7248 1469 
90 7730 2135 
50 6782 1179 
122 6998 1704 
18 6896 1717 
678 6838 1719 
DEMAND_SECTION 
1029 1130
281 51
334 26
570 45
17 56
34 42
248 43
368 25
140 34
517 53
610 44
296 50
134 54
363 56
714 50
174 55
301 52
704 37
331 28
149 40
835 30
90 54
50 50
122 37
18 47
678 43
DEPOT_SECTION 
1029
 -1
EOF